Problem:    sdflin
Rows:       147
Columns:    42
Non-zeros:  270
Status:     OPTIMAL
Objective:  totalcost = -7.2 (MINimum)

   No.   Row name   St   Activity     Lower bound   Upper bound    Marginal
------ ------------ -- ------------- ------------- ------------- -------------
     1 totalcost    B           -7.2                             
     2 actor_allocation[1]
                    NS             1             1             =           7.2 
     3 actor_allocation[2]
                    NS             1             1             =           7.2 
     4 primary_pairing[1,1,1,1]
                    NU             0                          -0         < eps
     5 primary_pairing[1,1,1,2]
                    B              0                          -0 
     6 primary_pairing[1,1,1,3]
                    B              0                          -0 
     7 primary_pairing[1,1,2,1]
                    B           -0.5                          -0 
     8 primary_pairing[1,1,2,2]
                    B           -0.5                          -0 
     9 primary_pairing[1,1,2,3]
                    B           -0.5                          -0 
    10 primary_pairing[1,1,3,1]
                    B           -0.5                          -0 
    11 primary_pairing[1,1,3,2]
                    B           -0.5                          -0 
    12 primary_pairing[1,1,3,3]
                    B           -0.5                          -0 
    13 primary_pairing[1,2,1,1]
                    B           -0.5                          -0 
    14 primary_pairing[1,2,1,2]
                    B             -1                          -0 
    15 primary_pairing[1,2,1,3]
                    B           -0.5                          -0 
    16 primary_pairing[1,2,2,1]
                    B           -0.5                          -0 
    17 primary_pairing[1,2,2,2]
                    B             -1                          -0 
    18 primary_pairing[1,2,2,3]
                    B           -0.5                          -0 
    19 primary_pairing[1,2,3,1]
                    B           -0.5                          -0 
    20 primary_pairing[1,2,3,2]
                    B             -1                          -0 
    21 primary_pairing[1,2,3,3]
                    B           -0.5                          -0 
    22 primary_pairing[2,1,1,1]
                    B             -1                          -0 
    23 primary_pairing[2,1,1,2]
                    B           -0.5                          -0 
    24 primary_pairing[2,1,1,3]
                    B           -0.5                          -0 
    25 primary_pairing[2,1,2,1]
                    B             -1                          -0 
    26 primary_pairing[2,1,2,2]
                    B           -0.5                          -0 
    27 primary_pairing[2,1,2,3]
                    B           -0.5                          -0 
    28 primary_pairing[2,1,3,1]
                    B             -1                          -0 
    29 primary_pairing[2,1,3,2]
                    B           -0.5                          -0 
    30 primary_pairing[2,1,3,3]
                    B           -0.5                          -0 
    31 primary_pairing[2,2,1,1]
                    B           -0.5                          -0 
    32 primary_pairing[2,2,1,2]
                    B           -0.5                          -0 
    33 primary_pairing[2,2,1,3]
                    B           -0.5                          -0 
    34 primary_pairing[2,2,2,1]
                    B              0                          -0 
    35 primary_pairing[2,2,2,2]
                    B              0                          -0 
    36 primary_pairing[2,2,2,3]
                    B              0                          -0 
    37 primary_pairing[2,2,3,1]
                    B           -0.5                          -0 
    38 primary_pairing[2,2,3,2]
                    B           -0.5                          -0 
    39 primary_pairing[2,2,3,3]
                    B           -0.5                          -0 
    40 secondary_pairing[1,1,1,1]
                    B              0                          -0 
    41 secondary_pairing[1,1,1,2]
                    B           -0.5                          -0 
    42 secondary_pairing[1,1,1,3]
                    B           -0.5                          -0 
    43 secondary_pairing[1,1,2,1]
                    B              0                          -0 
    44 secondary_pairing[1,1,2,2]
                    B           -0.5                          -0 
    45 secondary_pairing[1,1,2,3]
                    B           -0.5                          -0 
    46 secondary_pairing[1,1,3,1]
                    B              0                          -0 
    47 secondary_pairing[1,1,3,2]
                    B           -0.5                          -0 
    48 secondary_pairing[1,1,3,3]
                    B           -0.5                          -0 
    49 secondary_pairing[1,2,1,1]
                    B             -1                          -0 
    50 secondary_pairing[1,2,1,2]
                    B             -1                          -0 
    51 secondary_pairing[1,2,1,3]
                    B             -1                          -0 
    52 secondary_pairing[1,2,2,1]
                    B           -0.5                          -0 
    53 secondary_pairing[1,2,2,2]
                    B           -0.5                          -0 
    54 secondary_pairing[1,2,2,3]
                    B           -0.5                          -0 
    55 secondary_pairing[1,2,3,1]
                    B           -0.5                          -0 
    56 secondary_pairing[1,2,3,2]
                    B           -0.5                          -0 
    57 secondary_pairing[1,2,3,3]
                    B           -0.5                          -0 
    58 secondary_pairing[2,1,1,1]
                    B           -0.5                          -0 
    59 secondary_pairing[2,1,1,2]
                    B           -0.5                          -0 
    60 secondary_pairing[2,1,1,3]
                    B           -0.5                          -0 
    61 secondary_pairing[2,1,2,1]
                    B             -1                          -0 
    62 secondary_pairing[2,1,2,2]
                    B             -1                          -0 
    63 secondary_pairing[2,1,2,3]
                    B             -1                          -0 
    64 secondary_pairing[2,1,3,1]
                    B           -0.5                          -0 
    65 secondary_pairing[2,1,3,2]
                    B           -0.5                          -0 
    66 secondary_pairing[2,1,3,3]
                    B           -0.5                          -0 
    67 secondary_pairing[2,2,1,1]
                    B           -0.5                          -0 
    68 secondary_pairing[2,2,1,2]
                    B              0                          -0 
    69 secondary_pairing[2,2,1,3]
                    B           -0.5                          -0 
    70 secondary_pairing[2,2,2,1]
                    B           -0.5                          -0 
    71 secondary_pairing[2,2,2,2]
                    B              0                          -0 
    72 secondary_pairing[2,2,2,3]
                    B           -0.5                          -0 
    73 secondary_pairing[2,2,3,1]
                    B           -0.5                          -0 
    74 secondary_pairing[2,2,3,2]
                    B              0                          -0 
    75 secondary_pairing[2,2,3,3]
                    B           -0.5                          -0 
    76 sum_pairing[1,1,1,1]
                    B              0                           1 
    77 sum_pairing[1,1,1,2]
                    B            0.5                           1 
    78 sum_pairing[1,1,1,3]
                    B            0.5                           1 
    79 sum_pairing[1,1,2,1]
                    B            0.5                           1 
    80 sum_pairing[1,1,2,2]
                    B              1                           1 
    81 sum_pairing[1,1,2,3]
                    B              1                           1 
    82 sum_pairing[1,1,3,1]
                    B            0.5                           1 
    83 sum_pairing[1,1,3,2]
                    B              1                           1 
    84 sum_pairing[1,1,3,3]
                    NU             1                           1         < eps
    85 sum_pairing[1,2,1,1]
                    NU             1                           1          -1.2 
    86 sum_pairing[1,2,1,2]
                    NU             1                           1          -1.2 
    87 sum_pairing[1,2,1,3]
                    NU             1                           1          -1.2 
    88 sum_pairing[1,2,2,1]
                    NU             1                           1          -1.2 
    89 sum_pairing[1,2,2,2]
                    NU             1                           1          -1.2 
    90 sum_pairing[1,2,2,3]
                    NU             1                           1          -1.2 
    91 sum_pairing[1,2,3,1]
                    NU             1                           1          -1.2 
    92 sum_pairing[1,2,3,2]
                    NU             1                           1          -1.2 
    93 sum_pairing[1,2,3,3]
                    NU             1                           1          -1.2 
    94 sum_pairing[2,1,1,1]
                    NU             1                           1          -1.2 
    95 sum_pairing[2,1,1,2]
                    NU             1                           1          -1.2 
    96 sum_pairing[2,1,1,3]
                    NU             1                           1          -1.2 
    97 sum_pairing[2,1,2,1]
                    NU             1                           1          -1.2 
    98 sum_pairing[2,1,2,2]
                    NU             1                           1          -1.2 
    99 sum_pairing[2,1,2,3]
                    NU             1                           1          -1.2 
   100 sum_pairing[2,1,3,1]
                    NU             1                           1          -1.2 
   101 sum_pairing[2,1,3,2]
                    NU             1                           1          -1.2 
   102 sum_pairing[2,1,3,3]
                    NU             1                           1          -1.2 
   103 sum_pairing[2,2,1,1]
                    B              1                           1 
   104 sum_pairing[2,2,1,2]
                    B            0.5                           1 
   105 sum_pairing[2,2,1,3]
                    B              1                           1 
   106 sum_pairing[2,2,2,1]
                    B            0.5                           1 
   107 sum_pairing[2,2,2,2]
                    B              0                           1 
   108 sum_pairing[2,2,2,3]
                    B            0.5                           1 
   109 sum_pairing[2,2,3,1]
                    B              1                           1 
   110 sum_pairing[2,2,3,2]
                    B            0.5                           1 
   111 sum_pairing[2,2,3,3]
                    NU             1                           1         < eps
   112 non_overlap[1,1,1,1]
                    B              0            -0             = 
   113 non_overlap[1,1,1,2]
                    B              0            -0             = 
   114 non_overlap[1,1,1,3]
                    B              0            -0             = 
   115 non_overlap[1,1,2,1]
                    B              0            -0             = 
   116 non_overlap[1,1,2,2]
                    B              0            -0             = 
   117 non_overlap[1,1,2,3]
                    B              0            -0             = 
   118 non_overlap[1,1,3,1]
                    B              0            -0             = 
   119 non_overlap[1,1,3,2]
                    B              0            -0             = 
   120 non_overlap[1,1,3,3]
                    B              0            -0             = 
   121 non_overlap[1,2,1,1]
                    B              0            -0             = 
   122 non_overlap[1,2,1,2]
                    B              0            -0             = 
   123 non_overlap[1,2,1,3]
                    B              0            -0             = 
   124 non_overlap[1,2,2,1]
                    B              0            -0             = 
   125 non_overlap[1,2,2,2]
                    B              0            -0             = 
   126 non_overlap[1,2,2,3]
                    B              0            -0             = 
   127 non_overlap[1,2,3,1]
                    B              0            -0             = 
   128 non_overlap[1,2,3,2]
                    B              0            -0             = 
   129 non_overlap[1,2,3,3]
                    B              0            -0             = 
   130 non_overlap[2,1,1,1]
                    B              0            -0             = 
   131 non_overlap[2,1,1,2]
                    B              0            -0             = 
   132 non_overlap[2,1,1,3]
                    B              0            -0             = 
   133 non_overlap[2,1,2,1]
                    B              0            -0             = 
   134 non_overlap[2,1,2,2]
                    B              0            -0             = 
   135 non_overlap[2,1,2,3]
                    B              0            -0             = 
   136 non_overlap[2,1,3,1]
                    B              0            -0             = 
   137 non_overlap[2,1,3,2]
                    B              0            -0             = 
   138 non_overlap[2,1,3,3]
                    B              0            -0             = 
   139 non_overlap[2,2,1,1]
                    B              0            -0             = 
   140 non_overlap[2,2,1,2]
                    B              0            -0             = 
   141 non_overlap[2,2,1,3]
                    B              0            -0             = 
   142 non_overlap[2,2,2,1]
                    B              0            -0             = 
   143 non_overlap[2,2,2,2]
                    B              0            -0             = 
   144 non_overlap[2,2,2,3]
                    B              0            -0             = 
   145 non_overlap[2,2,3,1]
                    B              0            -0             = 
   146 non_overlap[2,2,3,2]
                    B              0            -0             = 
   147 non_overlap[2,2,3,3]
                    B              0            -0             = 

   No. Column name  St   Activity     Lower bound   Upper bound    Marginal
------ ------------ -- ------------- ------------- ------------- -------------
     1 x[1,1]       B              0                             
     2 x[1,2]       B            0.5                             
     3 x[1,3]       B            0.5                             
     4 x[2,1]       B            0.5                             
     5 x[2,2]       NF             0                                     < eps
     6 x[2,3]       B            0.5                             
     7 y[1,2,1,1]   B           -0.5                             
     8 y[1,2,1,2]   B             -1                             
     9 y[1,2,1,3]   B           -0.5                             
    10 y[1,2,2,1]   B              0                             
    11 y[1,2,2,2]   B           -0.5                             
    12 y[1,2,2,3]   B              0                             
    13 y[1,2,3,1]   NF             0                                     < eps
    14 y[1,2,3,2]   B           -0.5                             
    15 y[1,2,3,3]   B              0                             
    16 y[2,1,1,1]   B           -0.5                             
    17 y[2,1,1,2]   B              0                             
    18 y[2,1,1,3]   B              0                             
    19 y[2,1,2,1]   B             -1                             
    20 y[2,1,2,2]   B           -0.5                             
    21 y[2,1,2,3]   B           -0.5                             
    22 y[2,1,3,1]   B           -0.5                             
    23 y[2,1,3,2]   B              0                             
    24 y[2,1,3,3]   B              0                             
    25 y[1,1,1,1]   NF             0                                     < eps
    26 y[1,1,1,2]   NF             0                                     < eps
    27 y[1,1,1,3]   NF             0                                     < eps
    28 y[1,1,2,1]   NF             0                                     < eps
    29 y[1,1,2,2]   NF             0                                     < eps
    30 y[1,1,2,3]   NF             0                                     < eps
    31 y[1,1,3,1]   NF             0                                     < eps
    32 y[1,1,3,2]   NF             0                                     < eps
    33 y[1,1,3,3]   B              0                             
    34 y[2,2,1,1]   NF             0                                     < eps
    35 y[2,2,1,2]   NF             0                                     < eps
    36 y[2,2,1,3]   NF             0                                     < eps
    37 y[2,2,2,1]   NF             0                                     < eps
    38 y[2,2,2,2]   NF             0                                     < eps
    39 y[2,2,2,3]   NF             0                                     < eps
    40 y[2,2,3,1]   NF             0                                     < eps
    41 y[2,2,3,2]   NF             0                                     < eps
    42 y[2,2,3,3]   NF             0                                     < eps

Karush-Kuhn-Tucker optimality conditions:

KKT.PE: max.abs.err = 4.44e-16 on row 1
        max.rel.err = 2.88e-17 on row 1
        High quality

KKT.PB: max.abs.err = 0.00e+00 on row 0
        max.rel.err = 0.00e+00 on row 0
        High quality

KKT.DE: max.abs.err = 4.44e-16 on column 1
        max.rel.err = 2.88e-17 on column 1
        High quality

KKT.DB: max.abs.err = 4.44e-16 on column 5
        max.rel.err = 4.44e-16 on column 5
        High quality

End of output
